%%% static parameters %%%
timespan = 1;
Clients_N = [4000];
Demand_W = [15];
Lt0 = [4];
Lt1 = [4];
SS_ = [0.85];
DS_D = [20];
K = [200];
MA = [500];
HC = [0.05];
%%% dynamic parameters %%%
lost_ratio_sales_ret_th = 0.0009057798723582777;
lost_ratio_sales_ret_w = 8;
lost_ratio_sales_dis_th = 0.00010228245503193812;
lost_ratio_sales_dis_w = 14;
lost_ratio_sales_fac_th = 0.0007939399987904489;
lost_ratio_sales_fac_w = 84;
stock_customer_MA_mean_relative_th = 0.971951986704483;
stock_customer_MA_mean_relative_w = 19;
stock_distributor_MA_mean_relative_th = 0.5091337425657747;
stock_distributor_MA_mean_relative_w = 58;
stock_retailer_MA_mean_relative_th = 0.14452199592549952;
stock_retailer_MA_mean_relative_w = 64;
stock_factory_MA_mean_relative_th = 0.43488713692461656;
stock_factory_MA_mean_relative_w = 69;
